Optimal - objective value 3965.00000000
      0 x_0_1                   1                       0
     22 x_1_3                   1                     347
     46 x_2_7                   1                       0
     76 x_3_17                  1                       9
     98 x_4_19                  1                       0
    119 x_5_20                  1                       0
    132 x_6_13                  1                       0
    151 x_7_12                  1                     150
    174 x_8_15                  1                       0
    188 x_9_8                   1                      -6
    202 x_10_2                  1                       0
    226 x_11_6                  1                       0
    244 x_12_4                  1                       0
    265 x_13_5                  1                       0
    291 x_14_11                 1                     182
    314 x_15_14                 1                       0
    329 x_16_9                  1                       0
    356 x_17_16                 1                       0
    370 x_18_10                 1                       0
    380 x_19_0                  1                     236
    418 x_20_18                 1                     350
    420 u_1                     1                       0
    421 u_2                    16                       0
    422 u_3                     2                       0
    423 u_4                    19                       0
    424 u_5                    12                       0
    425 u_6       9.99999999999999                       0
    426 u_7                    17                       0
    427 u_8       5.99999999999999                       0
    428 u_9                     5                       0
    429 u_10                   15                       0
    430 u_11      8.99999999999999                       0
    431 u_12                   18                       0
    432 u_13                   11                       0
    433 u_14      7.99999999999999                       0
    434 u_15      6.99999999999999                       0
    435 u_16                    4                       0
    436 u_17                    3                       0
    437 u_18                   14                       0
    438 u_19                   20                       0
    439 u_20                   13                       0
